data;
param nombreJob := 6;
param nombreRessource := 3;
param duree := 1 1 2 2 3 5 4 4 5 9 6 10;
param capaciteRessource := 1 7 2 13 3 17;
param besoinRessource : 1 2 3 :=
                    1   4 4 7
                    2   4 7 8
                    3   1 1 1
                    4   3 5 4
                    5   1 2 9
                    6   4 2 5;
end;

